
Gurobi 10.0.1 (linux64) logging started Sun Nov 26 15:37:23 2023

Set parameter LogFile to value "ArtificialInstance/ExperimentV2/S2T3K2/BaSp/gurobi1.txt"
Gurobi Optimizer version 10.0.1 build v10.0.1rc0 (linux64)

CPU model: AMD EPYC 7H12 64-Core Processor, instruction set [SSE2|AVX|AVX2]
Thread count: 128 physical cores, 128 logical processors, using up to 32 threads

Academic license 656792 - for non-commercial use only - registered to b.___@student.vu.nl
Optimize a model with 1420 rows, 2160 columns and 7040 nonzeros
Model fingerprint: 0x250cc7af
Variable types: 0 continuous, 2160 integer (2160 binary)
Coefficient statistics:
  Matrix range     [1e+00, 1e+00]
  Objective range  [2e+00, 2e+01]
  Bounds range     [1e+00, 1e+00]
  RHS range        [1e+00, 1e+00]
Found heuristic solution: objective 641.0328958
Presolve time: 0.01s
Presolved: 1420 rows, 2160 columns, 7040 nonzeros
Variable types: 0 continuous, 2160 integer (2160 binary)

Root relaxation: objective 3.458250e+01, 996 iterations, 0.02 seconds (0.01 work units)

    Nodes    |    Current Node    |     Objective Bounds      |     Work
 Expl Unexpl |  Obj  Depth IntInf | Incumbent    BestBd   Gap | It/Node Time

     0     0   34.58250    0  210  641.03290   34.58250  94.6%     -    0s
H    0     0                     193.6837364   34.58250  82.1%     -    0s
H    0     0                     180.1124425   34.58250  80.8%     -    0s
H    0     0                      69.1650053   34.58250  50.0%     -    0s
H    0     0                      57.8561605   40.44886  30.1%     -    0s
H    0     0                      52.1350487   40.44886  22.4%     -    0s
     0     0   40.44886    0  292   52.13505   40.44886  22.4%     -    0s
H    0     0                      51.4746057   40.44886  21.4%     -    0s
     0     0   41.94830    0  209   51.47461   41.94830  18.5%     -    0s
     0     0   44.32917    0  331   51.47461   44.32917  13.9%     -    0s
     0     0   44.44129    0  332   51.47461   44.44129  13.7%     -    0s
     0     0   44.98890    0  391   51.47461   44.98890  12.6%     -    0s
     0     0   44.98890    0  341   51.47461   44.98890  12.6%     -    0s
     0     0   44.98890    0  204   51.47461   44.98890  12.6%     -    0s
     0     0   44.98890    0  270   51.47461   44.98890  12.6%     -    0s
     0     0   44.98890    0  299   51.47461   44.98890  12.6%     -    0s
     0     0   44.98890    0  355   51.47461   44.98890  12.6%     -    0s
     0     0   44.98890    0  415   51.47461   44.98890  12.6%     -    0s
     0     0   44.98890    0  416   51.47461   44.98890  12.6%     -    0s
     0     0   45.28091    0  393   51.47461   45.28091  12.0%     -    0s
     0     0   45.38742    0  418   51.47461   45.38742  11.8%     -    0s
     0     0   45.41363    0  429   51.47461   45.41363  11.8%     -    0s
     0     0   45.41363    0  430   51.47461   45.41363  11.8%     -    0s
     0     0   46.78432    0  346   51.47461   46.78432  9.11%     -    1s
     0     0   46.97880    0  353   51.47461   46.97880  8.73%     -    1s
     0     0   47.04010    0  387   51.47461   47.04010  8.61%     -    1s
H    0     0                      51.4617219   47.67078  7.37%     -    1s
     0     0   47.67078    0  490   51.46172   47.67078  7.37%     -    1s
     0     0   48.12056    0  467   51.46172   48.12056  6.49%     -    1s
     0     0   48.32067    0  473   51.46172   48.32067  6.10%     -    1s
     0     0   48.82209    0  424   51.46172   48.82209  5.13%     -    1s
     0     0   48.83771    0  397   51.46172   48.83771  5.10%     -    1s
     0     0   48.83771    0  198   51.46172   48.83771  5.10%     -    1s
     0     0   48.83771    0  334   51.46172   48.83771  5.10%     -    1s
     0     0   48.83771    0  336   51.46172   48.83771  5.10%     -    1s
     0     0   48.83771    0  334   51.46172   48.83771  5.10%     -    1s
     0     0   48.83771    0  362   51.46172   48.83771  5.10%     -    1s
     0     0   48.83771    0  366   51.46172   48.83771  5.10%     -    1s
     0     0   48.83771    0  413   51.46172   48.83771  5.10%     -    1s
     0     0   48.83771    0  413   51.46172   48.83771  5.10%     -    1s
     0     0   48.83771    0  413   51.46172   48.83771  5.10%     -    1s
     0     0   48.83771    0  386   51.46172   48.83771  5.10%     -    1s
     0     0   48.83771    0  379   51.46172   48.83771  5.10%     -    1s
     0     0   48.83771    0  376   51.46172   48.83771  5.10%     -    1s
     0     0   48.83771    0  389   51.46172   48.83771  5.10%     -    1s
     0     0   48.83771    0  361   51.46172   48.83771  5.10%     -    1s
     0     2   48.83771    0  361   51.46172   48.83771  5.10%     -    2s

Cutting planes:
  Gomory: 9
  Zero half: 46
  RLT: 31

Explored 23 nodes (15415 simplex iterations) in 2.06 seconds (0.99 work units)
Thread count was 32 (of 128 available processors)

Solution count 8: 51.4617 51.4746 52.135 ... 641.033

Optimal solution found (tolerance 1.00e-04)
Best objective 5.146172189898e+01, best bound 5.146172189898e+01, gap 0.0000%
